DIMENSION :5
NODE_COORD_SECTION
1 -47.41099209059345 -9.292047312323874
2 0.2725074160232879 8.325650810861845
3 -85.00896043594429 63.680274965902754
4 87.61355570111465 19.761111246378732
5 28.359879724288447 34.62892302653424
EOF
